p cnf 10 20
4 7 6 0
9 -6 -4 0
-3 -7 9 0
-4 6 8 0
-7 3 10 0
7 -8 5 0
2 -9 6 0
-10 -5 -2 0
1 -3 5 0
4 9 8 0
-10 -3 8 0
1 -6 -2 0
-8 7 4 0
-9 -10 3 0
-7 -8 2 0
2 -1 -10 0
1 9 10 0
-4 3 -5 0
-7 8 4 0
8 2 9 0
